
Gurobi 11.0.0 (win64) logging started Wed May 22 16:35:52 2024

Set parameter LogFile to value "./Results/StripPacking-ManyRuns/Logs/RUspb-111-StripPacking-15-1.log"
Set parameter TimeLimit to value 3600
Set parameter Cuts to value 1
Set parameter Presolve to value 1
Set parameter Heuristics to value 1
Set parameter LPWarmStart to value 2
Gurobi Optimizer version 11.0.0 build v11.0.0rc2 (win64 - Windows 10.0 (19045.2))

CPU model: Intel(R) Core(TM) i9-10980XE CPU @ 3.00GHz, instruction set [SSE2|AVX|AVX2|AVX512]
Thread count: 18 physical cores, 36 logical processors, using up to 18 threads

Optimize a model with 7050 rows, 451 columns and 20610 nonzeros
Model fingerprint: 0x010aa30d
Variable types: 31 continuous, 420 integer (420 binary)
Coefficient statistics:
  Matrix range     [1e+00, 1e+04]
  Objective range  [1e+00, 1e+00]
  Bounds range     [1e+00, 1e+04]
  RHS range        [1e+00, 1e+04]
Using branch priorities.

Warning: Completing partial solution with 420 unfixed non-continuous variables out of 420
User MIP start produced solution with objective 72 (0.00s)
User MIP start produced solution with objective 72 (0.00s)
Loaded user MIP start with objective 72

Presolve removed 210 rows and 0 columns
Presolve time: 0.06s
Presolved: 6840 rows, 451 columns, 20774 nonzeros
Variable types: 31 continuous, 420 integer (420 binary)

Root relaxation: objective 3.700000e+01, 1302 iterations, 0.13 seconds (0.21 work units)

    Nodes    |    Current Node    |     Objective Bounds      |     Work
 Expl Unexpl |  Obj  Depth IntInf | Incumbent    BestBd   Gap | It/Node Time

     0     0   37.00000    0   45   72.00000   37.00000  48.6%     -    0s
H    0     0                      71.0000000   37.00000  47.9%     -    0s
     0     0   37.00000    0   46   71.00000   37.00000  47.9%     -    0s
     0     0   37.00000    0   49   71.00000   37.00000  47.9%     -    0s
     0     0   37.00000    0   37   71.00000   37.00000  47.9%     -    1s
H    0     0                      63.0000000   37.00000  41.3%     -    1s
H    0     0                      61.0000000   37.00000  39.3%     -    1s
     0     0   37.00000    0   34   61.00000   37.00000  39.3%     -    1s
     0     0   37.00000    0   18   61.00000   37.00000  39.3%     -    1s
     0     0   37.00000    0   20   61.00000   37.00000  39.3%     -    1s
     0     0   37.00000    0   46   61.00000   37.00000  39.3%     -    2s
H    0     0                      60.0000000   37.00000  38.3%     -    2s
     0     0   37.00000    0   38   60.00000   37.00000  38.3%     -    2s
     0     0   37.00000    0   43   60.00000   37.00000  38.3%     -    2s
     0     0   37.00000    0   35   60.00000   37.00000  38.3%     -    2s
     0     0   37.00000    0   42   60.00000   37.00000  38.3%     -    3s
     0     0   37.00000    0   39   60.00000   37.00000  38.3%     -    3s
     0     0   37.00000    0   53   60.00000   37.00000  38.3%     -    3s
     0     0   37.00000    0   52   60.00000   37.00000  38.3%     -    3s
     0     0   37.00000    0   38   60.00000   37.00000  38.3%     -    4s
     0     0   37.00000    0   38   60.00000   37.00000  38.3%     -    4s
     0     2   37.00000    0   38   60.00000   37.00000  38.3%     -    5s
H   35    50                      59.0000000   37.00000  37.3%  63.8    5s
H  154   170                      58.0000000   37.00000  36.2%  54.5    7s
H  156   170                      56.0000000   37.00000  33.9%  54.5    7s
   206   223   37.00000   11   70   56.00000   37.00000  33.9%  50.9   21s
H  207   223                      55.0000000   37.00000  32.7%  50.6   21s
H  211   223                      53.0000000   37.00000  30.2%  50.4   21s
H  213   223                      52.0000000   37.00000  28.8%  50.6   21s
   393   330   39.00000   17   59   52.00000   37.00000  28.8%  42.3   26s
H  396   330                      52.0000000   37.00000  28.8%  42.3   26s
H  397   330                      51.0000000   37.00000  27.5%  42.5   26s
   774   685   45.00000   41   56   51.00000   37.00000  27.5%  36.3   37s
H  905   685                      51.0000000   37.00000  27.5%  35.3   37s
  1013   939   37.00000   12   82   51.00000   37.00000  27.5%  34.1   51s
  1501  1440   47.00000   33   39   51.00000   37.00000  27.5%  33.9   57s
  2532  1385   39.00000   15   63   51.00000   37.00000  27.5%  30.4   78s
H 2582  1218                      50.0000000   37.00000  26.0%  30.5   78s
  2586  1640     cutoff   27        50.00000   37.00000  26.0%  30.5   83s
H 2846  1640                      50.0000000   37.00000  26.0%  30.0   83s
  3640  1644   37.00000   17   52   50.00000   37.00000  26.0%  29.8   85s
  3652  1652   39.00000   26   38   50.00000   37.00000  26.0%  29.7   90s
  3886  1794   37.00000   22   26   50.00000   37.00000  26.0%  34.1  112s
  4001  1827   37.00000   25   49   50.00000   37.00000  26.0%  35.4  115s
  4311  1790 infeasible   33        50.00000   37.00000  26.0%  38.5  122s
  4536  1776   48.00000   33   35   50.00000   37.00000  26.0%  40.8  131s
  4578  1772   48.00000   34   34   50.00000   37.00000  26.0%  41.2  135s
  4734  1855 infeasible   36        50.00000   37.00000  26.0%  42.4  143s
* 4898  1717              33      49.0000000   37.00000  24.5%  43.7  143s
  5095  1741 infeasible   26        49.00000   37.00000  24.5%  44.9  146s
  5651  1618   43.00000   32   58   49.00000   37.00000  24.5%  48.8  156s
  6598  1470   46.00000   30   46   49.00000   37.00000  24.5%  55.1  164s
  6718  1450 infeasible   31        49.00000   37.00000  24.5%  55.5  174s
  6776  1700   46.00000   32   40   49.00000   37.00000  24.5%  55.6  178s
  8051  1236 infeasible   33        49.00000   37.00000  24.5%  59.1  186s
  8125  1287   37.00000   25   50   49.00000   37.00000  24.5%  59.4  193s
  8509  1283   39.00000   28   62   49.00000   37.00000  24.5%  60.9  207s
  9096  1351 infeasible   34        49.00000   37.00000  24.5%  63.8  212s
* 9588  1255              31      48.0000000   37.00000  22.9%  65.9  212s
 10237  1266   42.00000   32   56   48.00000   37.00000  22.9%  68.0  218s
 10361  1384   42.00000   33   87   48.00000   37.00000  22.9%  68.6  226s
 11016  1463 infeasible   34        48.00000   37.00000  22.9%  70.0  231s
 12217  1564   46.00000   40   42   48.00000   37.00000  22.9%  74.0  239s
 12716  1665   46.00000   41   36   48.00000   37.00000  22.9%  75.2  254s
H12746  1665                      48.0000000   37.00000  22.9%  75.1  254s
 13240  1952 infeasible   37        48.00000   37.00000  22.9%  75.5  262s
 15057  1940 infeasible   37        48.00000   37.00000  22.9%  77.0  271s
 15105  2023   37.00000   34   60   48.00000   37.00000  22.9%  77.2  280s
 16944  2034   42.00000   30   75   48.00000   37.00000  22.9%  80.1  294s
 16969  2123 infeasible   31        48.00000   37.00000  22.9%  80.2  304s
 18912  2138   37.00000   28   74   48.00000   37.00000  22.9%  82.6  322s
 18933  2366   37.00000   29   73   48.00000   37.00000  22.9%  82.6  333s
 20267  2363 infeasible   32        48.00000   37.00000  22.9%  82.7  341s
 20382  2397   37.00000   29   74   48.00000   37.00000  22.9%  83.0  348s
 21145  2633   47.00000   38   41   48.00000   37.00000  22.9%  83.6  356s
 22292  2780 infeasible   30        48.00000   37.00000  22.9%  83.9  371s
*22424  2130              51      47.0000000   37.00000  21.3%  84.0  371s
 24660  2119     cutoff   30        47.00000   37.00000  21.3%  85.7  385s
H24677  2119                      47.0000000   37.00000  21.3%  85.6  385s
 24915  2242   46.00000   38   40   47.00000   37.00000  21.3%  85.6  398s
 25804  2449   37.00000   27   57   47.00000   37.00000  21.3%  85.7  410s
 28597  2444 infeasible   33        47.00000   37.00000  21.3%  85.6  423s
 29112  2388 infeasible   36        47.00000   37.00000  21.3%  86.8  436s
 29942  2420 infeasible   31        47.00000   37.00000  21.3%  87.3  444s
 31237  2896   46.00000   35   38   47.00000   37.00000  21.3%  87.6  471s
 35174  2875 infeasible   39        47.00000   37.00000  21.3%  88.4  505s
 35231  2905   37.00000   30   80   47.00000   37.00000  21.3%  88.5  516s
 37026  2922   39.00000   28   55   47.00000   37.00000  21.3%  88.5  533s
 37088  3157 infeasible   28        47.00000   37.00000  21.3%  88.5  550s
 39934  3145 infeasible   37        47.00000   37.00000  21.3%  87.3  561s
 39988  3134   46.00000   35   42   47.00000   37.70588  19.8%  87.3  571s
 40427  3129 infeasible   28        47.00000   39.00000  17.0%  87.2  586s
 40470  3159 infeasible   28        47.00000   39.00000  17.0%  87.3  598s
 40916  3149   43.00000   30   37   47.00000   39.00000  17.0%  87.1  611s
 40964  3308   44.00000   31   43   47.00000   39.00000  17.0%  87.1  627s
 44011  3400 infeasible   34        47.00000   39.00000  17.0%  86.1  643s
 44453  3495   39.00000   32   98   47.00000   39.00000  17.0%  85.9  714s
 53124  3506   42.00000   28   84   47.00000   39.00000  17.0%  83.3  725s
 53419  3558   42.00000   29   80   47.00000   39.00000  17.0%  83.4  740s
 54072  3565   46.00000   25   50   47.00000   39.00000  17.0%  83.5  749s
 54806  3605   41.00000   30   61   47.00000   39.00000  17.0%  83.3  761s
 56098  3620 infeasible   32        47.00000   39.00000  17.0%  82.9  771s
 57233  3604 infeasible   26        47.00000   39.00000  17.0%  82.7  783s
 57556  3606 infeasible   27        47.00000   39.00000  17.0%  82.6  799s
 57948  3610 infeasible   37        47.00000   40.00000  14.9%  82.5  813s
 58659  3512 infeasible   41        47.00000   42.00000  10.6%  82.3  824s
 60550  3584   42.00000   35   44   47.00000   42.00000  10.6%  81.8  834s
 62353  3540 infeasible   29        47.00000   42.00000  10.6%  81.1  847s
 62630  3498 infeasible   35        47.00000   42.00000  10.6%  81.0  872s
 65303  3509   46.00000   32   50   47.00000   42.00000  10.6%  80.4  886s
 65328  3803 infeasible   33        47.00000   42.00000  10.6%  80.4  957s
 72849  3797   46.00000   34   76   47.00000   43.00000  8.51%  77.9  990s
 73016  3056 infeasible   35        47.00000   43.00000  8.51%  77.9 1127s
 85881  3065   43.00000   30   61   47.00000   43.00000  8.51%  75.6 1144s
 85988  3292 infeasible   31        47.00000   43.00000  8.51%  75.6 1159s
 88206  3289   43.00000   38   41   47.00000   43.00000  8.51%  75.6 1174s
 88245  3487 infeasible   39        47.00000   43.00000  8.51%  75.6 1208s
 91824  3467 infeasible   53        47.00000   43.00000  8.51%  75.8 1233s
 91878  3437 infeasible   43        47.00000   43.00000  8.51%  75.8 1258s
 94670  3439 infeasible   29        47.00000   43.00000  8.51%  76.3 1276s
 94704  3480   43.00000   27   45   47.00000   43.00000  8.51%  76.3 1295s
 96705  3485   46.00000   32   52   47.00000   43.00000  8.51%  76.5 1300s
 96733  3520   43.00000   25   37   47.00000   43.00000  8.51%  76.6 1305s
 96803  3563   43.00000   28   40   47.00000   43.00000  8.51%  76.6 1314s
 96843  3588   43.00000   29   31   47.00000   43.00000  8.51%  76.6 1317s
 96910  3620   43.00000   31   20   47.00000   43.00000  8.51%  76.6 1320s
 96967  3633   43.00000   32   51   47.00000   43.00000  8.51%  76.6 1330s
 97119  3648   43.00000   29   43   47.00000   43.00000  8.51%  76.8 1338s
 97160  3684   43.00000   30   42   47.00000   43.00000  8.51%  76.8 1344s
 97345  3653   43.00000   33   50   47.00000   43.00000  8.51%  76.8 1355s
 97451  3626 infeasible   33        47.00000   43.00000  8.51%  76.9 1369s
 97798  3642   46.00000   32   43   47.00000   43.00000  8.51%  77.0 1376s
 98962  3281   43.00000   35  111   47.00000   43.00000  8.51%  77.5 1382s
 99029  3347 infeasible   37        47.00000   43.00000  8.51%  77.5 1389s
 99460  3248 infeasible   34        47.00000   43.00000  8.51%  77.5 1395s
 100875  2852   46.00000   32   46   47.00000   43.00000  8.51%  78.1 1402s
 101150  2785 infeasible   36        47.00000   43.00000  8.51%  78.2 1409s
 101400  2744 infeasible   31        47.00000   43.00000  8.51%  78.2 1417s
 101722  2710 infeasible   39        47.00000   43.00000  8.51%  78.3 1424s
 102275  2553 infeasible   43        47.00000   43.00000  8.51%  78.5 1430s
 104024  1979   46.00000   35   58   47.00000   43.00000  8.51%  79.3 1443s
 104051  2118   46.00000   36   48   47.00000   43.00000  8.51%  79.3 1452s
 105244  1705 infeasible   35        47.00000   43.00000  8.51%  79.5 1468s
 105296  1714 infeasible   35        47.00000   43.00000  8.51%  79.5 1477s
 106051  1569   43.00000   33   63   47.00000   43.00000  8.51%  79.9 1483s
 106729  1321 infeasible   39        47.00000   43.00000  8.51%  80.0 1491s
 107688  1191   46.00000   38   60   47.00000   43.00000  8.51%  80.2 1499s
 107845  1451 infeasible   40        47.00000   43.00000  8.51%  80.3 1508s
 109966  1436 infeasible   51        47.00000   43.00000  8.51%  80.6 1517s
 110309  1446 infeasible   33        47.00000   43.00000  8.51%  80.8 1533s
 110803  1436 infeasible   41        47.00000   43.00000  8.51%  81.0 1541s
 110867  1426   43.00000   43   85   47.00000   43.00000  8.51%  81.0 1550s
 112062  1405   43.00000   44   83   47.00000   43.00000  8.51%  81.4 1564s
 112557  1597 infeasible   37        47.00000   43.00000  8.51%  81.7 1574s
 113762  1521   46.00000   41   43   47.00000   43.00000  8.51%  81.7 1583s
 114881  1532 infeasible   40        47.00000   43.00000  8.51%  82.0 1597s
 114906  1396 infeasible   41        47.00000   43.00000  8.51%  82.0 1606s
 116387  1421   46.00000   33   39   47.00000   43.00000  8.51%  82.0 1616s
 117716  1386   43.00000   33   34   47.00000   43.00000  8.51%  81.8 1630s
 117971  1517   43.00000   34   32   47.00000   43.00000  8.51%  81.8 1640s
 119573  1444   46.00000   37   47   47.00000   43.00000  8.51%  81.5 1654s
 119965   877 infeasible   38        47.00000   43.00000  8.51%  81.4 1690s
 124490  1156   46.00000   45   74   47.00000   43.00000  8.51%  80.8 1703s
 126347  1153 infeasible   53        47.00000   43.00000  8.51%  80.2 1716s
 126386  1532 infeasible   54        47.00000   43.00000  8.51%  80.2 1730s
 130591  1415 infeasible   51        47.00000   43.00000  8.51%  79.0 1747s
 131085  1065   43.00000   36   50   47.00000   43.00000  8.51%  78.9 1758s
 133831  1071 infeasible   46        47.00000   43.00000  8.51%  78.4 1779s
 133861  1362 infeasible   47        47.00000   43.00000  8.51%  78.4 1795s
 138353  1292 infeasible   51        47.00000   43.00000  8.51%  77.2 1810s
 138463   811 infeasible   44        47.00000   43.00000  8.51%  77.3 1821s
 140954   808 infeasible   44        47.00000   43.00000  8.51%  76.9 1832s
 140993   704   43.00000   46   44   47.00000   43.00000  8.51%  76.9 1841s
 141345   509 infeasible   47        47.00000   43.00000  8.51%  76.9 1856s
 143707   517 infeasible   52        47.00000   45.00000  4.26%  76.6 1876s
 143734   596 infeasible   53        47.00000   45.00000  4.26%  76.6 1908s
 148210   527 infeasible   42        47.00000   45.00000  4.26%  75.6 1928s
 148662     0 infeasible   41        47.00000   45.00000  4.26%  75.6 1957s

Cutting planes:
  Learned: 1432
  Gomory: 12
  Lift-and-project: 60
  Cover: 83
  Implied bound: 6
  Clique: 8
  MIR: 223
  StrongCG: 6
  Flow cover: 590
  GUB cover: 36
  Zero half: 6
  RLT: 4
  Relax-and-lift: 151
  BQP: 9
  PSD: 1

Explored 152723 nodes (11481913 simplex iterations) in 1958.16 seconds (1044.80 work units)
Thread count was 18 (of 36 available processors)

Solution count 10: 47 47 47 ... 51

Optimal solution found (tolerance 1.00e-04)
Best objective 4.700000000000e+01, best bound 4.700000000000e+01, gap 0.0000%

Gurobi 11.0.0 (win64) logging started Tue Jun 18 18:59:13 2024

Set parameter LogFile to value "./Results/StripPacking-ManyRuns/Logs/RUspb-111-StripPacking-15-1.log"
Set parameter TimeLimit to value 3600
Set parameter Cuts to value 1
Set parameter Presolve to value 1
Set parameter Heuristics to value 1
Set parameter LPWarmStart to value 2
Gurobi Optimizer version 11.0.0 build v11.0.0rc2 (win64 - Windows 10.0 (19045.2))

CPU model: Intel(R) Core(TM) i9-10980XE CPU @ 3.00GHz, instruction set [SSE2|AVX|AVX2|AVX512]
Thread count: 18 physical cores, 36 logical processors, using up to 18 threads

Optimize a model with 7050 rows, 451 columns and 20610 nonzeros
Model fingerprint: 0x5a1e9e27
Variable types: 31 continuous, 420 integer (420 binary)
Coefficient statistics:
  Matrix range     [1e+00, 1e+04]
  Objective range  [1e+00, 1e+00]
  Bounds range     [1e+00, 1e+04]
  RHS range        [1e+00, 1e+04]
Using branch priorities.

Warning: Completing partial solution with 420 unfixed non-continuous variables out of 420
User MIP start produced solution with objective 77 (0.02s)
Loaded user MIP start with objective 77

Presolve removed 238 rows and 1 columns
Presolve time: 0.05s
Presolved: 6812 rows, 450 columns, 20672 nonzeros
Variable types: 31 continuous, 419 integer (419 binary)

Root relaxation: objective 5.000000e+01, 1001 iterations, 0.09 seconds (0.14 work units)

    Nodes    |    Current Node    |     Objective Bounds      |     Work
 Expl Unexpl |  Obj  Depth IntInf | Incumbent    BestBd   Gap | It/Node Time

     0     0   50.00000    0    7   77.00000   50.00000  35.1%     -    0s
H    0     0                      63.0000000   50.00000  20.6%     -    0s
H    0     0                      60.0000000   50.00000  16.7%     -    0s
H    0     0                      59.0000000   50.00000  15.3%     -    0s
     0     0   50.00000    0   12   59.00000   50.00000  15.3%     -    0s
H    0     0                      58.0000000   50.00000  13.8%     -    0s
H    0     0                      57.0000000   50.00000  12.3%     -    0s
     0     0   50.00000    0   12   57.00000   50.00000  12.3%     -    0s
     0     0   50.00000    0    9   57.00000   50.00000  12.3%     -    0s
     0     0   50.00000    0    9   57.00000   50.00000  12.3%     -    0s
     0     0   50.00000    0    9   57.00000   50.00000  12.3%     -    1s
     0     0   50.00000    0   24   57.00000   50.00000  12.3%     -    1s
     0     0   50.00000    0   12   57.00000   50.00000  12.3%     -    1s
     0     0   50.00000    0   12   57.00000   50.00000  12.3%     -    1s
     0     0   50.00000    0    5   57.00000   50.00000  12.3%     -    1s
     0     0   50.00000    0    5   57.00000   50.00000  12.3%     -    1s
     0     0   50.00000    0    4   57.00000   50.00000  12.3%     -    2s
     0     0   50.00000    0    4   57.00000   50.00000  12.3%     -    2s
     0     0   50.00000    0    6   57.00000   50.00000  12.3%     -    2s
     0     0   50.00000    0    6   57.00000   50.00000  12.3%     -    2s
     0     0   50.00000    0    8   57.00000   50.00000  12.3%     -    2s
     0     0   50.00000    0    8   57.00000   50.00000  12.3%     -    2s
     0     2   50.00000    0    8   57.00000   50.00000  12.3%     -    2s
H   82    84                      56.0000000   50.00000  10.7%  14.5    4s
H   93    98                      55.0000000   50.00000  9.09%  14.9    4s
   103   130   50.00000    9   20   55.00000   50.00000  9.09%  15.4    5s
H  139   148                      52.0000000   50.00000  3.85%  24.2    6s
H  146   148                      51.0000000   50.00000  1.96%  25.3    6s
H  148   148                      50.0000000   50.00000  0.00%  25.1    6s

Cutting planes:
  Learned: 11
  Gomory: 1
  Lift-and-project: 4
  Cover: 7
  MIR: 13
  StrongCG: 1
  Zero half: 1
  RLT: 1
  Relax-and-lift: 1

Explored 157 nodes (8718 simplex iterations) in 6.57 seconds (1.43 work units)
Thread count was 18 (of 36 available processors)

Solution count 10: 50 51 52 ... 63

Optimal solution found (tolerance 1.00e-04)
Best objective 5.000000000000e+01, best bound 5.000000000000e+01, gap 0.0000%
